1
120
49
30 2
31 1
32 2
33 4
34 2
35 1
37 3
42 1
43 4
44 2
45 3
46 1
47 2
51 2
52 2
53 2
54 1
56 2
57 3
58 2
59 1
60 4
61 2
63 2
64 1
65 3
66 1
67 3
69 3
70 1
71 1
72 1
74 3
75 3
76 2
77 2
78 5
80 2
82 2
84 1
85 1
88 3
89 2
91 1
93 1
96 1
97 3
99 2
100 1
